632616100595641782507,6,1,2,09,6,1,2,07,8,1,2,07,5,1,2,013,1,1,2,09,9,1,2,012,9,1,2,015,2,1,2,015,8,1,2,01,10,1,2,06,1,1,2,02,15,1,2,05,2,1,2,07,8,1,2,09,8,1,2,02,2,1,2,013,8,1,2,07,8,1,2,04,13,1,2,05,4,1,2,03,10,1,2,02,8,1,2,011,12,1,2,015,15,1,2,03,4,1,2,06,7,1,2,011,12,1,2,08,14,1,2,015,7,1,2,04,8,1,2,012,14,1,2,012,1,1,2,011,3,1,2,06,13,1,2,012,7,1,2,04,11,1,2,015,2,1,2,06,14,1,2,07,8,1,2,02,7,1,2,013,8,1,2,02,13,1,2,012,8,1,2,07,10,1,2,04,14,1,2,04,11,1,2,05,1,1,2,013,6,1,2,01,7,1,2,014,15,1,2,0